13
al12w_icosahedron Ih -- Adam & Rich, Acta Cryst. 7 (1954) 813 — WAl12 (cI26, Im-3) is built from W-centred Al12 icosahedra. Idealised to a regular icosahedron here; in the crystal the site symmetry is only m-3.
W 0.000000 0.000000 0.000000
Al 0.000000 1.451018 2.347796
Al 1.451018 2.347796 0.000000
Al 2.347796 0.000000 1.451018
Al 0.000000 1.451018 -2.347796
Al 1.451018 -2.347796 0.000000
Al -2.347796 0.000000 1.451018
Al 0.000000 -1.451018 2.347796
Al -1.451018 2.347796 0.000000
Al 2.347796 0.000000 -1.451018
Al 0.000000 -1.451018 -2.347796
Al -1.451018 -2.347796 0.000000
Al -2.347796 0.000000 -1.451018
