54
mackay_icosahedron Ih -- Mackay, Acta Cryst. 15 (1962) 916 (the Mackay icosahedron); Elser & Henley, Phys. Rev. Lett. 55 (1985) 2883 (the 54-atom Mackay icosahedron as the building block of alpha-Al-Mn-Si and of icosahedral Al-Mn). Shell ratios 1 : sqrt(2+2/sqrt5) : 2, scaled to a 2.76 A shortest distance.
Al 0.000000 1.451018 2.347796
Al 1.451018 2.347796 0.000000
Al 2.347796 0.000000 1.451018
Al 0.000000 1.451018 -2.347796
Al 1.451018 -2.347796 0.000000
Al -2.347796 0.000000 1.451018
Al 0.000000 -1.451018 2.347796
Al -1.451018 2.347796 0.000000
Al 2.347796 0.000000 -1.451018
Al 0.000000 -1.451018 -2.347796
Al -1.451018 -2.347796 0.000000
Al -2.347796 0.000000 -1.451018
Al 1.451018 3.798814 2.347796
Al 2.347796 1.451018 3.798814
Al -2.347796 1.451018 3.798814
Al 0.000000 0.000000 4.695592
Al -1.451018 3.798814 2.347796
Al 3.798814 2.347796 1.451018
Al 1.451018 3.798814 -2.347796
Al 0.000000 4.695592 0.000000
Al 3.798814 2.347796 -1.451018
Al 3.798814 -2.347796 1.451018
Al 2.347796 -1.451018 3.798814
Al 4.695592 0.000000 0.000000
Al -1.451018 3.798814 -2.347796
Al 2.347796 1.451018 -3.798814
Al 0.000000 0.000000 -4.695592
Al -2.347796 1.451018 -3.798814
Al 1.451018 -3.798814 2.347796
Al 3.798814 -2.347796 -1.451018
Al 1.451018 -3.798814 -2.347796
Al 0.000000 -4.695592 0.000000
Al -2.347796 -1.451018 3.798814
Al -3.798814 2.347796 1.451018
Al -3.798814 -2.347796 1.451018
Al -4.695592 0.000000 0.000000
Al -1.451018 -3.798814 2.347796
Al -3.798814 2.347796 -1.451018
Al 2.347796 -1.451018 -3.798814
Al -1.451018 -3.798814 -2.347796
Al -2.347796 -1.451018 -3.798814
Al -3.798814 -2.347796 -1.451018
Mn 0.000000 2.902036 4.695592
Mn 2.902036 4.695592 0.000000
Mn 4.695592 0.000000 2.902036
Mn 0.000000 2.902036 -4.695592
Mn 2.902036 -4.695592 0.000000
Mn -4.695592 0.000000 2.902036
Mn 0.000000 -2.902036 4.695592
Mn -2.902036 4.695592 0.000000
Mn 4.695592 0.000000 -2.902036
Mn 0.000000 -2.902036 -4.695592
Mn -2.902036 -4.695592 0.000000
Mn -4.695592 0.000000 -2.902036
